02_FORMAL/smt/RIINA/Domains/TEEAttestation.smt2
; Copyright (c) 2026 The RIINA Authors. All rights reserved.
; Copyright (c) 2026 The RIINA Authors.
; Auto-generated from 02_FORMAL/coq/domains/TEEAttestation.v (100 assertions)
; Generated by scripts/generate-full-stack.py
; Module: TEEAttestation

(set-logic ALL)
(set-option :produce-models true)

; EnclaveState (matches Coq: Inductive EnclaveState)
(declare-datatypes ((EnclaveState 0)) (((ES_Uninitialized) (ES_Created) (ES_Initialized) (ES_Running) (ES_Suspended) (ES_Destroyed))))

; EnclaveEvent (matches Coq: Inductive EnclaveEvent)
(declare-datatypes ((EnclaveEvent 0)) (((EE_Create) (EE_Initialize) (EE_Enter) (EE_Exit) (EE_Suspend) (EE_Resume) (EE_Destroy))))

; SealingPolicy (matches Coq: Inductive SealingPolicy)
(declare-datatypes ((SealingPolicy 0)) (((SP_MRENCLAVE) (SP_MRSIGNER))))

; MemoryRegionType (matches Coq: Inductive MemoryRegionType)
(declare-datatypes ((MemoryRegionType 0)) (((MRT_Normal) (MRT_Enclave) (MRT_Shared))))

; EnclaveProperties (matches Coq: Record EnclaveProperties)
(declare-datatypes ((EnclaveProperties 0))
  (((mk-enclave_properties (enc_memory_encrypted Bool) (enc_code_integrity Bool) (enc_data_sealing Bool) (enc_isolated_execution Bool)))))

; EnclaveIdentity (matches Coq: Record EnclaveIdentity)
(declare-datatypes ((EnclaveIdentity 0))
  (((mk-enclave_identity (ei_measurement Int) (ei_signer Int) (ei_product_id Int) (ei_security_version Int)))))

; AttestationProperties (matches Coq: Record AttestationProperties)
(declare-datatypes ((AttestationProperties 0))
  (((mk-attestation_properties (att_measurement Bool) (att_signature Bool) (att_freshness Bool) (att_binding Bool)))))

; AttestationQuote (matches Coq: Record AttestationQuote)
(declare-datatypes ((AttestationQuote 0))
  (((mk-attestation_quote (aq_enclave_identity EnclaveIdentity) (aq_report_data Int) (aq_nonce Int) (aq_timestamp Int) (aq_platform_info Int) (aq_signature_valid Bool)))))

; VerificationContext (matches Coq: Record VerificationContext)
(declare-datatypes ((VerificationContext 0))
  (((mk-verification_context (vc_expected_measurement Int) (vc_expected_signer Int) (vc_min_security_version Int) (vc_expected_nonce Int) (vc_max_timestamp_age Int) (vc_current_time Int)))))

; TEEConfig (matches Coq: Record TEEConfig)
(declare-datatypes ((TEEConfig 0))
  (((mk-tee_config (tee_enclave EnclaveProperties) (tee_attestation AttestationProperties) (tee_remote_attestation Bool) (tee_local_attestation Bool) (tee_key_derivation Bool)))))

; SealedData (matches Coq: Record SealedData)
(declare-datatypes ((SealedData 0))
  (((mk-sealed_data (sd_policy SealingPolicy) (sd_ciphertext Int) (sd_auth_tag Int) (sd_key_id Int)))))

; KeyDerivationParams (matches Coq: Record KeyDerivationParams)
(declare-datatypes ((KeyDerivationParams 0))
  (((mk-key_derivation_params (kdp_policy SealingPolicy) (kdp_enclave_id EnclaveIdentity) (kdp_key_name Int) (kdp_key_size Int)))))

; MemoryPermissions (matches Coq: Record MemoryPermissions)
(declare-datatypes ((MemoryPermissions 0))
  (((mk-memory_permissions (mp_read Bool) (mp_write Bool) (mp_execute Bool)))))

; MemoryRegion (matches Coq: Record MemoryRegion)
(declare-datatypes ((MemoryRegion 0))
  (((mk-memory_region (mr_base Int) (mr_size Int) (mr_type MemoryRegionType) (mr_permissions MemoryPermissions) (mr_encrypted Bool)))))

; PlatformIdentity (matches Coq: Record PlatformIdentity)
(declare-datatypes ((PlatformIdentity 0))
  (((mk-platform_identity (pi_cpu_svn Int) (pi_pce_svn Int) (pi_qe_id Int) (pi_platform_id Int) (pi_tcb_info_valid Bool)))))

; TrustChain (matches Coq: Record TrustChain)
(declare-datatypes ((TrustChain 0))
  (((mk-trust_chain (tc_root_key_valid Bool) (tc_pck_cert_valid Bool) (tc_tcb_signing_valid Bool) (tc_qe_report_valid Bool)))))

; enclave_secure (matches Coq: Definition enclave_secure)
(define-fun enclave_secure ((e EnclaveProperties)) Bool
  (and (enc_memory_encrypted e) (enc_code_integrity e) (enc_data_sealing e) (enc_isolated_execution e)))

; quote_measurement_valid (matches Coq: Definition quote_measurement_valid)
(define-fun quote_measurement_valid ((q AttestationQuote) (ctx VerificationContext)) Bool
  Nat)

; quote_signer_valid (matches Coq: Definition quote_signer_valid)
(define-fun quote_signer_valid ((q AttestationQuote) (ctx VerificationContext)) Bool
  Nat)

; quote_svn_valid (matches Coq: Definition quote_svn_valid)
(define-fun quote_svn_valid ((q AttestationQuote) (ctx VerificationContext)) Bool
  Nat)

; quote_nonce_valid (matches Coq: Definition quote_nonce_valid)
(define-fun quote_nonce_valid ((q AttestationQuote) (ctx VerificationContext)) Bool
  Nat)

; quote_fresh (matches Coq: Definition quote_fresh)
(define-fun quote_fresh ((q AttestationQuote) (ctx VerificationContext)) Bool
  Nat)

; verify_quote (matches Coq: Definition verify_quote)
(define-fun verify_quote ((q AttestationQuote) (ctx VerificationContext)) Bool
  true)

; attestation_secure (matches Coq: Definition attestation_secure)
(define-fun attestation_secure ((a AttestationProperties)) Bool
  (and (att_measurement a) (att_signature a) (att_freshness a) (att_binding a)))

; tee_secure (matches Coq: Definition tee_secure)
(define-fun tee_secure ((t TEEConfig)) Bool
  true)

; derive_seal_key_id (matches Coq: Definition derive_seal_key_id)
(define-fun derive_seal_key_id ((params KeyDerivationParams)) Int
  true)

; can_unseal (matches Coq: Definition can_unseal)
(define-fun can_unseal ((sealed SealedData) (current EnclaveIdentity)) Bool
  true)

; region_contains (matches Coq: Definition region_contains)
(define-fun region_contains ((r MemoryRegion) (addr Int)) Bool
  Nat)

; regions_overlap (matches Coq: Definition regions_overlap)
(define-fun regions_overlap () Bool true)

; enclave_memory_protected (matches Coq: Definition enclave_memory_protected)
(define-fun enclave_memory_protected ((r MemoryRegion)) Bool
  true)

; trust_chain_complete (matches Coq: Definition trust_chain_complete)
(define-fun trust_chain_complete ((tc TrustChain)) Bool
  (and (tc_root_key_valid tc) (tc_pck_cert_valid tc) (tc_tcb_signing_valid tc) (tc_qe_report_valid tc)))

; platform_trusted (matches Coq: Definition platform_trusted)
(define-fun platform_trusted ((pi PlatformIdentity) (tc TrustChain)) Bool
  (and (pi_tcb_info_valid pi) (trust_chain_complete tc)))

; riina_enclave (matches Coq: Definition riina_enclave)
(define-fun riina_enclave () EnclaveProperties
  (mk-enclave_properties true true true true))

; riina_attestation (matches Coq: Definition riina_attestation)
(define-fun riina_attestation () AttestationProperties
  (mk-attestation_properties true true true true))

; riina_tee (matches Coq: Definition riina_tee)
(define-fun riina_tee () TEEConfig
  (mk-tee_config (riina_enclave) (riina_attestation) true true true))

; riina_enclave_identity (matches Coq: Definition riina_enclave_identity)
(define-fun riina_enclave_identity () EnclaveIdentity
  (mk-enclave_identity 12345 67890 1 100))

; riina_verification_context (matches Coq: Definition riina_verification_context)
(define-fun riina_verification_context () VerificationContext
  (mk-verification_context 12345 67890 50 42 3600 1000))

; riina_quote (matches Coq: Definition riina_quote)
(define-fun riina_quote () AttestationQuote
  (mk-attestation_quote (riina_enclave_identity) 999 42 900 555 true))

; riina_platform (matches Coq: Definition riina_platform)
(define-fun riina_platform () PlatformIdentity
  (mk-platform_identity 10 5 111 222 true))

; riina_trust_chain (matches Coq: Definition riina_trust_chain)
(define-fun riina_trust_chain () TrustChain
  (mk-trust_chain true true true true))

; riina_secure_memory (matches Coq: Definition riina_secure_memory)
(define-fun riina_secure_memory () MemoryRegion true)

; sample_kdp_mrenclave (matches Coq: Definition sample_kdp_mrenclave)
(define-fun sample_kdp_mrenclave () KeyDerivationParams
  (mk-key_derivation_params SP_MRENCLAVE (riina_enclave_identity) 100 256))

; sample_kdp_mrsigner (matches Coq: Definition sample_kdp_mrsigner)
(define-fun sample_kdp_mrsigner () KeyDerivationParams
  (mk-key_derivation_params SP_MRSIGNER (riina_enclave_identity) 100 256))

; andb_true_iff (matches Coq: Lemma andb_true_iff)
(assert (= true true)) ; andb_true_iff [untranslatable]

; andb_false_iff (matches Coq: Lemma andb_false_iff)
(assert (= true true)) ; andb_false_iff [untranslatable]

; orb_true_iff (matches Coq: Lemma orb_true_iff)
(assert (= true true)) ; orb_true_iff [untranslatable]

; negb_true_iff (matches Coq: Lemma negb_true_iff)
(assert (= true true)) ; negb_true_iff [untranslatable]

; negb_false_iff (matches Coq: Lemma negb_false_iff)
(assert (= true true)) ; negb_false_iff [untranslatable]

; TEE_001 (matches Coq: Theorem TEE_001)
(assert (= (enclave_secure riina_enclave) true)) ; TEE_001

; TEE_002 (matches Coq: Theorem TEE_002)
(assert (= (attestation_secure riina_attestation) true)) ; TEE_002

; TEE_003 (matches Coq: Theorem TEE_003)
(assert (= (tee_secure riina_tee) true)) ; TEE_003

; TEE_004 (matches Coq: Theorem TEE_004)
(assert (= (enc_memory_encrypted riina_enclave) true)) ; TEE_004

; TEE_005 (matches Coq: Theorem TEE_005)
(assert (= (enc_code_integrity riina_enclave) true)) ; TEE_005

; TEE_006 (matches Coq: Theorem TEE_006)
(assert (= (enc_data_sealing riina_enclave) true)) ; TEE_006

; TEE_007 (matches Coq: Theorem TEE_007)
(assert (= (enc_isolated_execution riina_enclave) true)) ; TEE_007

; TEE_008 (matches Coq: Theorem TEE_008)
(assert (= (att_measurement riina_attestation) true)) ; TEE_008

; TEE_009 (matches Coq: Theorem TEE_009)
(assert (= (att_signature riina_attestation) true)) ; TEE_009

; TEE_010 (matches Coq: Theorem TEE_010)
(assert (= (att_freshness riina_attestation) true)) ; TEE_010

; TEE_011 (matches Coq: Theorem TEE_011)
(assert (= (att_binding riina_attestation) true)) ; TEE_011

; TEE_012 (matches Coq: Theorem TEE_012)
(assert (= (tee_remote_attestation riina_tee) true)) ; TEE_012

; TEE_013 (matches Coq: Theorem TEE_013)
(assert (= (tee_local_attestation riina_tee) true)) ; TEE_013

; TEE_014 (matches Coq: Theorem TEE_014)
(assert (= true true)) ; TEE_014 [untranslatable]

; TEE_015 (matches Coq: Theorem TEE_015)
(assert (= true true)) ; TEE_015 [untranslatable]

; TEE_016 (matches Coq: Theorem TEE_016)
(assert (= true true)) ; TEE_016 [untranslatable]

; TEE_017 (matches Coq: Theorem TEE_017)
(assert (= true true)) ; TEE_017 [untranslatable]

; TEE_018 (matches Coq: Theorem TEE_018)
(assert (= true true)) ; TEE_018 [untranslatable]

; TEE_019 (matches Coq: Theorem TEE_019)
(assert (= true true)) ; TEE_019 [untranslatable]

; TEE_020 (matches Coq: Theorem TEE_020)
(assert (= true true)) ; TEE_020 [untranslatable]

; TEE_021 (matches Coq: Theorem TEE_021)
(assert (= true true)) ; TEE_021 [untranslatable]

; TEE_022 (matches Coq: Theorem TEE_022)
(assert (= true true)) ; TEE_022 [untranslatable]

; TEE_023 (matches Coq: Theorem TEE_023)
(assert (= true true)) ; TEE_023 [untranslatable]

; TEE_024 (matches Coq: Theorem TEE_024)
(assert (and (= (tee_secure riina_tee) true) (= (tee_remote_attestation riina_tee) true))) ; TEE_024

; TEE_025_complete (matches Coq: Theorem TEE_025_complete)
(assert (= true true)) ; TEE_025_complete [untranslatable]

; TEE_026_create_transition (matches Coq: Theorem TEE_026_create_transition)
(assert (= (enclave_transition ES_Uninitialized EE_Create) (Some ES_Created))) ; TEE_026_create_transition

; TEE_027_init_transition (matches Coq: Theorem TEE_027_init_transition)
(assert (= (enclave_transition ES_Created EE_Initialize) (Some ES_Initialized))) ; TEE_027_init_transition

; TEE_028_enter_transition (matches Coq: Theorem TEE_028_enter_transition)
(assert (= (enclave_transition ES_Initialized EE_Enter) (Some ES_Running))) ; TEE_028_enter_transition

; TEE_029_exit_transition (matches Coq: Theorem TEE_029_exit_transition)
(assert (= (enclave_transition ES_Running EE_Exit) (Some ES_Initialized))) ; TEE_029_exit_transition

; TEE_030_suspend_transition (matches Coq: Theorem TEE_030_suspend_transition)
(assert (= (enclave_transition ES_Running EE_Suspend) (Some ES_Suspended))) ; TEE_030_suspend_transition

; TEE_031_resume_transition (matches Coq: Theorem TEE_031_resume_transition)
(assert (= (enclave_transition ES_Suspended EE_Resume) (Some ES_Running))) ; TEE_031_resume_transition

; TEE_032_destroy_from_init (matches Coq: Theorem TEE_032_destroy_from_init)
(assert (= (enclave_transition ES_Initialized EE_Destroy) (Some ES_Destroyed))) ; TEE_032_destroy_from_init

; TEE_033_destroy_from_created (matches Coq: Theorem TEE_033_destroy_from_created)
(assert (= (enclave_transition ES_Created EE_Destroy) (Some ES_Destroyed))) ; TEE_033_destroy_from_created

; TEE_034_no_create_from_running (matches Coq: Theorem TEE_034_no_create_from_running)
(assert (= (enclave_transition ES_Running EE_Create) None)) ; TEE_034_no_create_from_running

; TEE_035_no_enter_uninitialized (matches Coq: Theorem TEE_035_no_enter_uninitialized)
(assert (= (enclave_transition ES_Uninitialized EE_Enter) None)) ; TEE_035_no_enter_uninitialized

; TEE_036_lifecycle_to_running (matches Coq: Theorem TEE_036_lifecycle_to_running)
(assert (= true true)) ; TEE_036_lifecycle_to_running [untranslatable]

; TEE_037_suspend_resume_cycle (matches Coq: Theorem TEE_037_suspend_resume_cycle)
(assert (= true true)) ; TEE_037_suspend_resume_cycle [untranslatable]

; TEE_038_riina_quote_signature_valid (matches Coq: Theorem TEE_038_riina_quote_signature_valid)
(assert (= (aq_signature_valid riina_quote) true)) ; TEE_038_riina_quote_signature_valid

; TEE_039_riina_quote_measurement_valid (matches Coq: Theorem TEE_039_riina_quote_measurement_valid)
(assert (= (quote_measurement_valid riina_quote riina_verification_context) true)) ; TEE_039_riina_quote_measurement_valid

; TEE_040_riina_quote_signer_valid (matches Coq: Theorem TEE_040_riina_quote_signer_valid)
(assert (= (quote_signer_valid riina_quote riina_verification_context) true)) ; TEE_040_riina_quote_signer_valid

; TEE_041_riina_quote_svn_valid (matches Coq: Theorem TEE_041_riina_quote_svn_valid)
(assert (= (quote_svn_valid riina_quote riina_verification_context) true)) ; TEE_041_riina_quote_svn_valid

; TEE_042_riina_quote_nonce_valid (matches Coq: Theorem TEE_042_riina_quote_nonce_valid)
(assert (= (quote_nonce_valid riina_quote riina_verification_context) true)) ; TEE_042_riina_quote_nonce_valid

; TEE_043_riina_quote_fresh (matches Coq: Theorem TEE_043_riina_quote_fresh)
(assert (= (quote_fresh riina_quote riina_verification_context) true)) ; TEE_043_riina_quote_fresh

; TEE_044_riina_quote_verifies (matches Coq: Theorem TEE_044_riina_quote_verifies)
(assert (= (verify_quote riina_quote riina_verification_context) true)) ; TEE_044_riina_quote_verifies

; TEE_045_verified_quote_has_valid_signature (matches Coq: Theorem TEE_045_verified_quote_has_valid_signature)
(assert (= true true)) ; TEE_045_verified_quote_has_valid_signature [untranslatable]

; TEE_046_verified_quote_has_valid_measurement (matches Coq: Theorem TEE_046_verified_quote_has_valid_measurement)
(assert (= true true)) ; TEE_046_verified_quote_has_valid_measurement [untranslatable]

; TEE_047_verified_quote_has_valid_nonce (matches Coq: Theorem TEE_047_verified_quote_has_valid_nonce)
(assert (= true true)) ; TEE_047_verified_quote_has_valid_nonce [untranslatable]

; TEE_048_verified_quote_is_fresh (matches Coq: Theorem TEE_048_verified_quote_is_fresh)
(assert (= true true)) ; TEE_048_verified_quote_is_fresh [untranslatable]

; TEE_049_invalid_signature_fails_verification (matches Coq: Theorem TEE_049_invalid_signature_fails_verification)
(assert (= true true)) ; TEE_049_invalid_signature_fails_verification [untranslatable]

; TEE_050_stale_quote_fails_verification (matches Coq: Theorem TEE_050_stale_quote_fails_verification)
(assert (= true true)) ; TEE_050_stale_quote_fails_verification [untranslatable]

; TEE_051_derive_key_mrenclave (matches Coq: Theorem TEE_051_derive_key_mrenclave)
(assert (= true true)) ; TEE_051_derive_key_mrenclave [untranslatable]

; TEE_052_derive_key_mrsigner (matches Coq: Theorem TEE_052_derive_key_mrsigner)
(assert (= true true)) ; TEE_052_derive_key_mrsigner [untranslatable]

; TEE_053_key_derivation_deterministic (matches Coq: Theorem TEE_053_key_derivation_deterministic)
(assert (= true true)) ; TEE_053_key_derivation_deterministic [untranslatable]

; TEE_054_different_policy_different_key (matches Coq: Theorem TEE_054_different_policy_different_key)
(assert (= true true)) ; TEE_054_different_policy_different_key [untranslatable]

; TEE_055_keypolicy_uses_name_only (matches Coq: Theorem TEE_055_keypolicy_uses_name_only)
(assert (= true true)) ; TEE_055_keypolicy_uses_name_only [untranslatable]

; TEE_056_mrenclave_binding_enclave_specific (matches Coq: Theorem TEE_056_mrenclave_binding_enclave_specific)
(assert (= true true)) ; TEE_056_mrenclave_binding_enclave_specific [untranslatable]

; TEE_057_mrsigner_binding_signer_specific (matches Coq: Theorem TEE_057_mrsigner_binding_signer_specific)
(assert (= true true)) ; TEE_057_mrsigner_binding_signer_specific [untranslatable]

; TEE_058_different_key_names_different_keys (matches Coq: Theorem TEE_058_different_key_names_different_keys)
(assert (= true true)) ; TEE_058_different_key_names_different_keys [untranslatable]

; TEE_059_keypolicy_unseal_always_possible (matches Coq: Theorem TEE_059_keypolicy_unseal_always_possible)
(assert (= true true)) ; TEE_059_keypolicy_unseal_always_possible [untranslatable]

; TEE_060_key_size_does_not_affect_id (matches Coq: Theorem TEE_060_key_size_does_not_affect_id)
(assert (= true true)) ; TEE_060_key_size_does_not_affect_id [untranslatable]

; TEE_061_riina_memory_encrypted (matches Coq: Theorem TEE_061_riina_memory_encrypted)
(assert (= (mr_encrypted riina_secure_memory) true)) ; TEE_061_riina_memory_encrypted

; TEE_062_riina_memory_is_enclave (matches Coq: Theorem TEE_062_riina_memory_is_enclave)
(assert (= (mr_type riina_secure_memory) MRT_Enclave)) ; TEE_062_riina_memory_is_enclave

; TEE_063_enclave_memory_is_protected (matches Coq: Theorem TEE_063_enclave_memory_is_protected)
(assert (= (enclave_memory_protected riina_secure_memory) true)) ; TEE_063_enclave_memory_is_protected

; TEE_064_normal_memory_always_protected (matches Coq: Theorem TEE_064_normal_memory_always_protected)
(assert (= true true)) ; TEE_064_normal_memory_always_protected [untranslatable]

; TEE_065_shared_memory_always_protected (matches Coq: Theorem TEE_065_shared_memory_always_protected)
(assert (= true true)) ; TEE_065_shared_memory_always_protected [untranslatable]

; TEE_066_reserved_memory_always_protected (matches Coq: Theorem TEE_066_reserved_memory_always_protected)
(assert (= true true)) ; TEE_066_reserved_memory_always_protected [untranslatable]

; TEE_067_enclave_memory_encrypted_implies_protected (matches Coq: Theorem TEE_067_enclave_memory_encrypted_implies_protected)
(assert (= true true)) ; TEE_067_enclave_memory_encrypted_implies_protected [untranslatable]

; TEE_068_unencrypted_enclave_memory_unprotected (matches Coq: Theorem TEE_068_unencrypted_enclave_memory_unprotected)
(assert (= true true)) ; TEE_068_unencrypted_enclave_memory_unprotected [untranslatable]

; TEE_069_address_in_region (matches Coq: Theorem TEE_069_address_in_region)
(assert (= true true)) ; TEE_069_address_in_region [untranslatable]

; TEE_070_non_overlapping_regions_disjoint (matches Coq: Theorem TEE_070_non_overlapping_regions_disjoint)
(assert (= true true)) ; TEE_070_non_overlapping_regions_disjoint [untranslatable]

; TEE_071_riina_platform_tcb_valid (matches Coq: Theorem TEE_071_riina_platform_tcb_valid)
(assert (= (pi_tcb_info_valid riina_platform) true)) ; TEE_071_riina_platform_tcb_valid

; TEE_072_riina_trust_chain_complete (matches Coq: Theorem TEE_072_riina_trust_chain_complete)
(assert (= (trust_chain_complete riina_trust_chain) true)) ; TEE_072_riina_trust_chain_complete

; TEE_073_riina_platform_trusted (matches Coq: Theorem TEE_073_riina_platform_trusted)
(assert (= (platform_trusted riina_platform riina_trust_chain) true)) ; TEE_073_riina_platform_trusted

; TEE_074_trust_chain_requires_root_key (matches Coq: Theorem TEE_074_trust_chain_requires_root_key)
(assert (= true true)) ; TEE_074_trust_chain_requires_root_key [untranslatable]

; TEE_075_trust_chain_requires_pck_cert (matches Coq: Theorem TEE_075_trust_chain_requires_pck_cert)
(assert (= true true)) ; TEE_075_trust_chain_requires_pck_cert [untranslatable]

; TEE_076_trust_chain_requires_tcb_signing (matches Coq: Theorem TEE_076_trust_chain_requires_tcb_signing)
(assert (= true true)) ; TEE_076_trust_chain_requires_tcb_signing [untranslatable]

; TEE_077_trust_chain_requires_qe_report (matches Coq: Theorem TEE_077_trust_chain_requires_qe_report)
(assert (= true true)) ; TEE_077_trust_chain_requires_qe_report [untranslatable]

; TEE_078_invalid_root_breaks_trust (matches Coq: Theorem TEE_078_invalid_root_breaks_trust)
(assert (= true true)) ; TEE_078_invalid_root_breaks_trust [untranslatable]

; TEE_079_invalid_tcb_breaks_platform_trust (matches Coq: Theorem TEE_079_invalid_tcb_breaks_platform_trust)
(assert (= true true)) ; TEE_079_invalid_tcb_breaks_platform_trust [untranslatable]

; TEE_080_incomplete_chain_breaks_platform_trust (matches Coq: Theorem TEE_080_incomplete_chain_breaks_platform_trust)
(assert (= true true)) ; TEE_080_incomplete_chain_breaks_platform_trust [untranslatable]

; TEE_081_full_attestation_implies_all_properties (matches Coq: Theorem TEE_081_full_attestation_implies_all_properties)
(assert (= true true)) ; TEE_081_full_attestation_implies_all_properties [untranslatable]

; TEE_082_secure_tee_implies_all_enclave_properties (matches Coq: Theorem TEE_082_secure_tee_implies_all_enclave_properties)
(assert (= true true)) ; TEE_082_secure_tee_implies_all_enclave_properties [untranslatable]

; TEE_083_secure_tee_implies_all_attestation_properties (matches Coq: Theorem TEE_083_secure_tee_implies_all_attestation_properties)
(assert (= true true)) ; TEE_083_secure_tee_implies_all_attestation_properties [untranslatable]

; TEE_084_secure_tee_implies_key_derivation (matches Coq: Theorem TEE_084_secure_tee_implies_key_derivation)
(assert (= true true)) ; TEE_084_secure_tee_implies_key_derivation [untranslatable]

; TEE_085_secure_tee_implies_local_attestation (matches Coq: Theorem TEE_085_secure_tee_implies_local_attestation)
(assert (= true true)) ; TEE_085_secure_tee_implies_local_attestation [untranslatable]

; TEE_086_enclave_security_composition (matches Coq: Theorem TEE_086_enclave_security_composition)
(assert (= true true)) ; TEE_086_enclave_security_composition [untranslatable]

; TEE_087_attestation_security_composition (matches Coq: Theorem TEE_087_attestation_security_composition)
(assert (= true true)) ; TEE_087_attestation_security_composition [untranslatable]

; TEE_088_tee_security_composition (matches Coq: Theorem TEE_088_tee_security_composition)
(assert (= true true)) ; TEE_088_tee_security_composition [untranslatable]

; TEE_089_verified_quote_measurement_matches_context (matches Coq: Theorem TEE_089_verified_quote_measurement_matches_context)
(assert (= true true)) ; TEE_089_verified_quote_measurement_matches_context [untranslatable]

; TEE_090_verified_quote_signer_matches_context (matches Coq: Theorem TEE_090_verified_quote_signer_matches_context)
(assert (= true true)) ; TEE_090_verified_quote_signer_matches_context [untranslatable]

; TEE_091_verified_quote_svn_sufficient (matches Coq: Theorem TEE_091_verified_quote_svn_sufficient)
(assert (= true true)) ; TEE_091_verified_quote_svn_sufficient [untranslatable]

; TEE_092_verified_quote_nonce_matches (matches Coq: Theorem TEE_092_verified_quote_nonce_matches)
(assert (= true true)) ; TEE_092_verified_quote_nonce_matches [untranslatable]

; TEE_093_platform_trust_composition (matches Coq: Theorem TEE_093_platform_trust_composition)
(assert (= true true)) ; TEE_093_platform_trust_composition [untranslatable]

; TEE_094_riina_complete_security (matches Coq: Theorem TEE_094_riina_complete_security)
(assert (and (= (tee_secure riina_tee) true) (= (verify_quote riina_quote riina_verification_context) true) (= (platform_trusted riina_platform riina_trust_chain) true) (= (enclave_memory_protected riina_secure_memory) true))) ; TEE_094_riina_complete_security

; TEE_095_full_tee_security_decomposition (matches Coq: Theorem TEE_095_full_tee_security_decomposition)
(assert (= true true)) ; TEE_095_full_tee_security_decomposition [untranslatable]

; Verify all assertions are satisfiable
(check-sat)
(exit)
